[97mSOLVER - Computes the weighted upper irredundant/domination number.
Made in 2018-2020 by Daniel Severin.
[37m[33mStatistics:
  |V| = 88, |E| = 146 (density = 3.814%).
  Initial bounds:  LB = 0, UB = 88.
[37mDiameter of G: 12
[97mClassic UB = w(V) - min { w(N[v] - {u}) : v in V, u in N[v] } = 85
[37mNew bounds:  LB = 33, UB = 85.
[31mSolution (card = 33, weight = 33):
  private of 12 is 3
  private of 62 is 35
  private of 61 is 32
  private of 37 is 1
  private of 39 is 13
  private of 55 is 30
  private of 57 is 33
  private of 68 is 67
  private of 10 is 29
  private of 7 is 2
  private of 46 is 46
  private of 65 is 28
  private of 9 is 14
  private of 43 is 44
  private of 53 is 52
  private of 16 is 17
  private of 70 is 72
  private of 75 is 73
  private of 64 is 0
  private of 81 is 50
  private of 87 is 34
  private of 79 is 51
  private of 8 is 54
  private of 83 is 82
  private of 24 is 5
  private of 22 is 76
  private of 85 is 36
  private of 41 is 40
  private of 27 is 21
  private of 25 is 20
  private of 58 is 6
  private of 59 is 4
  private of 42 is 49
[37m[96mTime elapsed for heuristic = 0.26 sec.
[37m[35m
Complement of the transformed graph:
  |V| = 380, |E| = 67178 (density = 93.2898%).
[37m[97mModel has 7744 variables and 744 constraints.
[37mTried aggregator 1 time.
MIP Presolve eliminated 479 rows and 91 columns.
MIP Presolve modified 265 coefficients.
Reduced MIP has 265 rows, 289 columns, and 2355 nonzeros.
Reduced MIP has 289 binaries, 0 generals, 0 SOSs, and 0 indicators.
Presolve time = 0.00 sec. (3.10 ticks)
Tried aggregator 1 time.
Reduced MIP has 265 rows, 289 columns, and 2355 nonzeros.
Reduced MIP has 289 binaries, 0 generals, 0 SOSs, and 0 indicators.
Presolve time = 0.00 sec. (1.53 ticks)
Clique table members: 265.
MIP emphasis: balance optimality and feasibility.
MIP search method: dynamic search.
Parallel mode: none, using 1 thread.
Root relaxation solution time = 0.00 sec. (4.82 ticks)

        Nodes                                         Cuts/
   Node  Left     Objective  IInf  Best Integer    Best Bound    ItCnt     Gap

      0     0       35.7000   109                     35.7000      379         
      0     0       34.9097   144                    Cuts: 44      623         
      0     0       34.7500   114                    Cuts: 51      721         
      0     0       34.5109   145                    Cuts: 35      801         
      0     0       34.2825   167                    Cuts: 25      902         
      0     0       34.1177   165                    Cuts: 23     1015         
      0     0        cutoff                                       1066         
Elapsed time = 0.06 sec. (58.34 ticks, tree = 0.01 MB, solutions = 0)

Clique cuts applied:  33
Zero-half cuts applied:  39

Root node processing (before b&c):
  Real time             =    0.06 sec. (58.34 ticks)
Sequential b&c:
  Real time             =    0.00 sec. (0.00 ticks)
                          ------------
Total (root+branch&cut) =    0.06 sec. (58.34 ticks)
Number of nodes evaluated: 0
[92mInfeasible. Therefore, the solution given by the heuristic is optimal!
[37m[31mSolution (card = 33, weight = 33):
  private of 12 is 3
  private of 62 is 35
  private of 61 is 32
  private of 37 is 1
  private of 39 is 13
  private of 55 is 30
  private of 57 is 33
  private of 68 is 67
  private of 10 is 29
  private of 7 is 2
  private of 46 is 46
  private of 65 is 28
  private of 9 is 14
  private of 43 is 44
  private of 53 is 52
  private of 16 is 17
  private of 70 is 72
  private of 75 is 73
  private of 64 is 0
  private of 81 is 50
  private of 87 is 34
  private of 79 is 51
  private of 8 is 54
  private of 83 is 82
  private of 24 is 5
  private of 22 is 76
  private of 85 is 36
  private of 41 is 40
  private of 27 is 21
  private of 25 is 20
  private of 58 is 6
  private of 59 is 4
  private of 42 is 49
[37m[96mTime elapsed during optimization = 0.06 sec.
[37mCoq certificate written in certificate.v
Reading graph from output.dimacs...OK
Searching for a single maximum size clique...
  2/380 (max  1)  0.00 s  (0.00 s/round)
 12/380 (max  2)  0.00 s  (0.00 s/round)
 23/380 (max  3)  0.00 s  (0.00 s/round)
 33/380 (max  4)  0.00 s  (0.00 s/round)
 46/380 (max  5)  0.00 s  (0.00 s/round)
 59/380 (max  6)  0.00 s  (0.00 s/round)
 67/380 (max  7)  0.00 s  (0.00 s/round)
 84/380 (max  8)  0.00 s  (0.00 s/round)
 97/380 (max  9)  0.00 s  (0.00 s/round)
101/380 (max 10)  0.00 s  (0.00 s/round)
113/380 (max 11)  0.00 s  (0.00 s/round)
126/380 (max 12)  0.00 s  (0.00 s/round)
139/380 (max 13)  0.00 s  (0.00 s/round)
148/380 (max 14)  0.00 s  (0.00 s/round)
161/380 (max 15)  0.00 s  (0.00 s/round)
172/380 (max 16)  0.00 s  (0.00 s/round)
183/380 (max 17)  0.00 s  (0.00 s/round)
193/380 (max 18)  0.00 s  (0.00 s/round)
204/380 (max 19)  0.03 s  (0.00 s/round)
219/380 (max 20)  0.07 s  (0.00 s/round)
232/380 (max 21)  0.08 s  (0.00 s/round)
245/380 (max 22)  0.10 s  (0.00 s/round)
258/380 (max 22)  0.29 s  (0.01 s/round)
259/380 (max 23)  0.35 s  (0.06 s/round)
270/380 (max 24)  0.39 s  (0.00 s/round)
278/380 (max 25)  0.44 s  (0.01 s/round)
289/380 (max 26)  0.49 s  (0.00 s/round)
298/380 (max 27)  0.53 s  (0.01 s/round)
304/380 (max 28)  0.58 s  (0.01 s/round)
324/380 (max 29)  0.58 s  (0.00 s/round)
330/380 (max 30)  0.58 s  (0.00 s/round)
343/380 (max 31)  0.58 s  (0.00 s/round)
356/380 (max 32)  72.29 s  (5.52 s/round)
364/380 (max 33)  144.16 s  (8.98 s/round)
380/380 (max 33)  144.16 s  (0.00 s/round)
